
(set-logic HORN)
(declare-fun Z_2474 () Int)
(declare-fun S_572 (Int) Int)
(declare-fun diseqInt (Int Int) Bool)
(declare-fun unS_813 (Int Int) Bool)
(declare-fun isZ_529 (Int) Bool)
(declare-fun isS_529 (Int) Bool)
(assert (forall ((x_77941 Int))
	(unS_813 x_77941 (S_572 x_77941))))
(assert (isZ_529 Z_2474))
(assert (forall ((x_77943 Int))
	(isS_529 (S_572 x_77943))))
(assert (forall ((x_77944 Int))
	(diseqInt Z_2474 (S_572 x_77944))))
(assert (forall ((x_77945 Int))
	(diseqInt (S_572 x_77945) Z_2474)))
(assert (forall ((x_77946 Int) (x_77947 Int))
	(=> (diseqInt x_77946 x_77947) (diseqInt (S_572 x_77946) (S_572 x_77947)))))
(declare-fun add_434 (Int Int Int) Bool)
(declare-fun minus_427 (Int Int Int) Bool)
(declare-fun le_406 (Int Int) Bool)
(declare-fun ge_406 (Int Int) Bool)
(declare-fun lt_426 (Int Int) Bool)
(declare-fun gt_409 (Int Int) Bool)
(declare-fun mult_407 (Int Int Int) Bool)
(declare-fun div_406 (Int Int Int) Bool)
(declare-fun mod_408 (Int Int Int) Bool)
(assert (forall ((y_2808 Int))
	(add_434 y_2808 Z_2474 y_2808)))
(assert (forall ((x_77929 Int) (y_2808 Int) (r_546 Int))
	(=> (add_434 r_546 x_77929 y_2808) (add_434 (S_572 r_546) (S_572 x_77929) y_2808))))
(assert (forall ((y_2808 Int))
	(minus_427 Z_2474 Z_2474 y_2808)))
(assert (forall ((x_77929 Int) (y_2808 Int) (r_546 Int))
	(=> (minus_427 r_546 x_77929 y_2808) (minus_427 (S_572 r_546) (S_572 x_77929) y_2808))))
(assert (forall ((y_2808 Int))
	(le_406 Z_2474 y_2808)))
(assert (forall ((x_77929 Int) (y_2808 Int))
	(=> (le_406 x_77929 y_2808) (le_406 (S_572 x_77929) (S_572 y_2808)))))
(assert (forall ((y_2808 Int))
	(ge_406 y_2808 Z_2474)))
(assert (forall ((x_77929 Int) (y_2808 Int))
	(=> (ge_406 x_77929 y_2808) (ge_406 (S_572 x_77929) (S_572 y_2808)))))
(assert (forall ((y_2808 Int))
	(lt_426 Z_2474 (S_572 y_2808))))
(assert (forall ((x_77929 Int) (y_2808 Int))
	(=> (lt_426 x_77929 y_2808) (lt_426 (S_572 x_77929) (S_572 y_2808)))))
(assert (forall ((y_2808 Int))
	(gt_409 (S_572 y_2808) Z_2474)))
(assert (forall ((x_77929 Int) (y_2808 Int))
	(=> (gt_409 x_77929 y_2808) (gt_409 (S_572 x_77929) (S_572 y_2808)))))
(assert (forall ((y_2808 Int))
	(mult_407 Z_2474 Z_2474 y_2808)))
(assert (forall ((x_77929 Int) (y_2808 Int) (r_546 Int) (z_2475 Int))
	(=> (and (mult_407 r_546 x_77929 y_2808) (add_434 z_2475 r_546 y_2808)) (mult_407 z_2475 (S_572 x_77929) y_2808))))
(assert (forall ((x_77929 Int) (y_2808 Int))
	(=> (lt_426 x_77929 y_2808) (div_406 Z_2474 x_77929 y_2808))))
(assert (forall ((x_77929 Int) (y_2808 Int) (r_546 Int) (z_2475 Int))
	(=> (and (ge_406 x_77929 y_2808) (minus_427 z_2475 x_77929 y_2808) (div_406 r_546 z_2475 y_2808)) (div_406 (S_572 r_546) x_77929 y_2808))))
(assert (forall ((x_77929 Int) (y_2808 Int))
	(=> (lt_426 x_77929 y_2808) (mod_408 x_77929 x_77929 y_2808))))
(assert (forall ((x_77929 Int) (y_2808 Int) (r_546 Int) (z_2475 Int))
	(=> (and (ge_406 x_77929 y_2808) (minus_427 z_2475 x_77929 y_2808) (mod_408 r_546 z_2475 y_2808)) (mod_408 r_546 x_77929 y_2808))))
(declare-datatypes ((Bool_406 0)) (((false_406) (true_406))))
(declare-fun diseqBool_194 (Bool_406 Bool_406) Bool)
(declare-fun isfalse_194 (Bool_406) Bool)
(declare-fun istrue_194 (Bool_406) Bool)
(assert (isfalse_194 false_406))
(assert (istrue_194 true_406))
(assert (diseqBool_194 false_406 true_406))
(assert (diseqBool_194 true_406 false_406))
(declare-fun and_410 (Bool_406 Bool_406 Bool_406) Bool)
(declare-fun or_420 (Bool_406 Bool_406 Bool_406) Bool)
(declare-fun hence_406 (Bool_406 Bool_406 Bool_406) Bool)
(declare-fun not_411 (Bool_406 Bool_406) Bool)
(assert (and_410 false_406 false_406 false_406))
(assert (and_410 false_406 true_406 false_406))
(assert (and_410 false_406 false_406 true_406))
(assert (and_410 true_406 true_406 true_406))
(assert (or_420 false_406 false_406 false_406))
(assert (or_420 true_406 true_406 false_406))
(assert (or_420 true_406 false_406 true_406))
(assert (or_420 true_406 true_406 true_406))
(assert (hence_406 true_406 false_406 false_406))
(assert (hence_406 false_406 true_406 false_406))
(assert (hence_406 true_406 false_406 true_406))
(assert (hence_406 true_406 true_406 true_406))
(assert (not_411 true_406 false_406))
(assert (not_411 false_406 true_406))
(declare-datatypes ((pair_144 0)) (((pair_145 (projpair_288 Int) (projpair_289 Int)))))
(declare-fun diseqpair_72 (pair_144 pair_144) Bool)
(declare-fun projpair_290 (Int pair_144) Bool)
(declare-fun projpair_291 (Int pair_144) Bool)
(declare-fun ispair_72 (pair_144) Bool)
(assert (forall ((x_77950 Int) (x_77951 Int))
	(projpair_290 x_77950 (pair_145 x_77950 x_77951))))
(assert (forall ((x_77950 Int) (x_77951 Int))
	(projpair_291 x_77951 (pair_145 x_77950 x_77951))))
(assert (forall ((x_77953 Int) (x_77954 Int))
	(ispair_72 (pair_145 x_77953 x_77954))))
(assert (forall ((x_77955 Int) (x_77956 Int) (x_77957 Int) (x_77958 Int))
	(=> (diseqInt x_77955 x_77957) (diseqpair_72 (pair_145 x_77955 x_77956) (pair_145 x_77957 x_77958)))))
(assert (forall ((x_77955 Int) (x_77956 Int) (x_77957 Int) (x_77958 Int))
	(=> (diseqInt x_77956 x_77958) (diseqpair_72 (pair_145 x_77955 x_77956) (pair_145 x_77957 x_77958)))))
(declare-datatypes ((list_337 0)) (((nil_380) (cons_333 (head_666 Bool_406) (tail_670 list_337)))))
(declare-fun diseqlist_333 (list_337 list_337) Bool)
(declare-fun head_670 (Bool_406 list_337) Bool)
(declare-fun tail_674 (list_337 list_337) Bool)
(declare-fun isnil_380 (list_337) Bool)
(declare-fun iscons_333 (list_337) Bool)
(assert (forall ((x_77960 Bool_406) (x_77961 list_337))
	(head_670 x_77960 (cons_333 x_77960 x_77961))))
(assert (forall ((x_77960 Bool_406) (x_77961 list_337))
	(tail_674 x_77961 (cons_333 x_77960 x_77961))))
(assert (isnil_380 nil_380))
(assert (forall ((x_77963 Bool_406) (x_77964 list_337))
	(iscons_333 (cons_333 x_77963 x_77964))))
(assert (forall ((x_77965 Bool_406) (x_77966 list_337))
	(diseqlist_333 nil_380 (cons_333 x_77965 x_77966))))
(assert (forall ((x_77967 Bool_406) (x_77968 list_337))
	(diseqlist_333 (cons_333 x_77967 x_77968) nil_380)))
(assert (forall ((x_77969 Bool_406) (x_77970 list_337) (x_77971 Bool_406) (x_77972 list_337))
	(=> (diseqBool_194 x_77969 x_77971) (diseqlist_333 (cons_333 x_77969 x_77970) (cons_333 x_77971 x_77972)))))
(assert (forall ((x_77969 Bool_406) (x_77970 list_337) (x_77971 Bool_406) (x_77972 list_337))
	(=> (diseqlist_333 x_77970 x_77972) (diseqlist_333 (cons_333 x_77969 x_77970) (cons_333 x_77971 x_77972)))))
(declare-datatypes ((list_338 0)) (((nil_381) (cons_334 (head_667 Int) (tail_671 list_338)))))
(declare-fun diseqlist_334 (list_338 list_338) Bool)
(declare-fun head_671 (Int list_338) Bool)
(declare-fun tail_675 (list_338 list_338) Bool)
(declare-fun isnil_381 (list_338) Bool)
(declare-fun iscons_334 (list_338) Bool)
(assert (forall ((x_77974 Int) (x_77975 list_338))
	(head_671 x_77974 (cons_334 x_77974 x_77975))))
(assert (forall ((x_77974 Int) (x_77975 list_338))
	(tail_675 x_77975 (cons_334 x_77974 x_77975))))
(assert (isnil_381 nil_381))
(assert (forall ((x_77977 Int) (x_77978 list_338))
	(iscons_334 (cons_334 x_77977 x_77978))))
(assert (forall ((x_77979 Int) (x_77980 list_338))
	(diseqlist_334 nil_381 (cons_334 x_77979 x_77980))))
(assert (forall ((x_77981 Int) (x_77982 list_338))
	(diseqlist_334 (cons_334 x_77981 x_77982) nil_381)))
(assert (forall ((x_77983 Int) (x_77984 list_338) (x_77985 Int) (x_77986 list_338))
	(=> (diseqInt x_77983 x_77985) (diseqlist_334 (cons_334 x_77983 x_77984) (cons_334 x_77985 x_77986)))))
(assert (forall ((x_77983 Int) (x_77984 list_338) (x_77985 Int) (x_77986 list_338))
	(=> (diseqlist_334 x_77984 x_77986) (diseqlist_334 (cons_334 x_77983 x_77984) (cons_334 x_77985 x_77986)))))
(declare-datatypes ((list_339 0)) (((nil_382) (cons_335 (head_668 pair_144) (tail_672 list_339)))))
(declare-fun diseqlist_335 (list_339 list_339) Bool)
(declare-fun head_672 (pair_144 list_339) Bool)
(declare-fun tail_676 (list_339 list_339) Bool)
(declare-fun isnil_382 (list_339) Bool)
(declare-fun iscons_335 (list_339) Bool)
(assert (forall ((x_77988 pair_144) (x_77989 list_339))
	(head_672 x_77988 (cons_335 x_77988 x_77989))))
(assert (forall ((x_77988 pair_144) (x_77989 list_339))
	(tail_676 x_77989 (cons_335 x_77988 x_77989))))
(assert (isnil_382 nil_382))
(assert (forall ((x_77991 pair_144) (x_77992 list_339))
	(iscons_335 (cons_335 x_77991 x_77992))))
(assert (forall ((x_77993 pair_144) (x_77994 list_339))
	(diseqlist_335 nil_382 (cons_335 x_77993 x_77994))))
(assert (forall ((x_77995 pair_144) (x_77996 list_339))
	(diseqlist_335 (cons_335 x_77995 x_77996) nil_382)))
(assert (forall ((x_77997 pair_144) (x_77998 list_339) (x_77999 pair_144) (x_78000 list_339))
	(=> (diseqpair_72 x_77997 x_77999) (diseqlist_335 (cons_335 x_77997 x_77998) (cons_335 x_77999 x_78000)))))
(assert (forall ((x_77997 pair_144) (x_77998 list_339) (x_77999 pair_144) (x_78000 list_339))
	(=> (diseqlist_335 x_77998 x_78000) (diseqlist_335 (cons_335 x_77997 x_77998) (cons_335 x_77999 x_78000)))))
(declare-datatypes ((list_340 0)) (((nil_383) (cons_336 (head_669 list_339) (tail_673 list_340)))))
(declare-fun diseqlist_336 (list_340 list_340) Bool)
(declare-fun head_673 (list_339 list_340) Bool)
(declare-fun tail_677 (list_340 list_340) Bool)
(declare-fun isnil_383 (list_340) Bool)
(declare-fun iscons_336 (list_340) Bool)
(assert (forall ((x_78002 list_339) (x_78003 list_340))
	(head_673 x_78002 (cons_336 x_78002 x_78003))))
(assert (forall ((x_78002 list_339) (x_78003 list_340))
	(tail_677 x_78003 (cons_336 x_78002 x_78003))))
(assert (isnil_383 nil_383))
(assert (forall ((x_78005 list_339) (x_78006 list_340))
	(iscons_336 (cons_336 x_78005 x_78006))))
(assert (forall ((x_78007 list_339) (x_78008 list_340))
	(diseqlist_336 nil_383 (cons_336 x_78007 x_78008))))
(assert (forall ((x_78009 list_339) (x_78010 list_340))
	(diseqlist_336 (cons_336 x_78009 x_78010) nil_383)))
(assert (forall ((x_78011 list_339) (x_78012 list_340) (x_78013 list_339) (x_78014 list_340))
	(=> (diseqlist_335 x_78011 x_78013) (diseqlist_336 (cons_336 x_78011 x_78012) (cons_336 x_78013 x_78014)))))
(assert (forall ((x_78011 list_339) (x_78012 list_340) (x_78013 list_339) (x_78014 list_340))
	(=> (diseqlist_336 x_78012 x_78014) (diseqlist_336 (cons_336 x_78011 x_78012) (cons_336 x_78013 x_78014)))))
(declare-datatypes ((Maybe_13 0)) (((Nothing_13) (Just_13 (projJust_26 Int)))))
(declare-fun diseqMaybe_13 (Maybe_13 Maybe_13) Bool)
(declare-fun projJust_27 (Int Maybe_13) Bool)
(declare-fun isNothing_13 (Maybe_13) Bool)
(declare-fun isJust_13 (Maybe_13) Bool)
(assert (forall ((x_78016 Int))
	(projJust_27 x_78016 (Just_13 x_78016))))
(assert (isNothing_13 Nothing_13))
(assert (forall ((x_78018 Int))
	(isJust_13 (Just_13 x_78018))))
(assert (forall ((x_78019 Int))
	(diseqMaybe_13 Nothing_13 (Just_13 x_78019))))
(assert (forall ((x_78020 Int))
	(diseqMaybe_13 (Just_13 x_78020) Nothing_13)))
(assert (forall ((x_78021 Int) (x_78022 Int))
	(=> (diseqInt x_78021 x_78022) (diseqMaybe_13 (Just_13 x_78021) (Just_13 x_78022)))))
(declare-fun primEnumFromTo_7 (list_338 Int Int) Bool)
(assert (forall ((x_77844 Int) (y_2797 Int))
	(=> (gt_409 x_77844 y_2797) (primEnumFromTo_7 nil_381 x_77844 y_2797))))
(assert (forall ((x_77930 Int) (x_77861 list_338) (x_77844 Int) (y_2797 Int))
	(=> (and (le_406 x_77844 y_2797) (primEnumFromTo_7 x_77861 x_77930 y_2797) (add_434 x_77930 (S_572 Z_2474) x_77844)) (primEnumFromTo_7 (cons_334 x_77844 x_77861) x_77844 y_2797))))
(declare-fun petersen_16 (list_339 Int list_338) Bool)
(assert (forall ((x_77931 Int) (x_77863 list_339) (z_2467 Int) (x_77846 list_338) (x_77845 Int))
	(=> (and (petersen_16 x_77863 x_77845 x_77846) (add_434 x_77931 x_77845 z_2467)) (petersen_16 (cons_335 (pair_145 z_2467 x_77931) x_77863) x_77845 (cons_334 z_2467 x_77846)))))
(assert (forall ((x_77845 Int))
	(petersen_16 nil_382 x_77845 nil_381)))
(declare-fun petersen_17 (list_339 list_338) Bool)
(assert (forall ((x_77932 Int) (x_77866 list_339) (y_2799 Int) (z_2468 list_338))
	(=> (and (petersen_17 x_77866 z_2468) (add_434 x_77932 (S_572 Z_2474) y_2799)) (petersen_17 (cons_335 (pair_145 y_2799 x_77932) x_77866) (cons_334 y_2799 z_2468)))))
(assert (petersen_17 nil_382 nil_381))
(declare-fun petersen_18 (list_340 Int list_339) Bool)
(assert (forall ((x_77933 Int) (x_77934 Int) (x_77869 list_340) (u_17 Int) (v_17 Int) (x_77849 list_339) (x_77848 Int))
	(=> (and (petersen_18 x_77869 x_77848 x_77849) (add_434 x_77933 x_77848 u_17) (add_434 x_77934 x_77848 v_17)) (petersen_18 (cons_336 (cons_335 (pair_145 u_17 v_17) (cons_335 (pair_145 x_77933 x_77934) nil_382)) x_77869) x_77848 (cons_335 (pair_145 u_17 v_17) x_77849)))))
(assert (forall ((x_77848 Int))
	(petersen_18 nil_383 x_77848 nil_382)))
(declare-fun index_3 (Maybe_13 list_338 Int) Bool)
(assert (forall ((z_2470 Int) (xs_815 list_338))
	(index_3 (Just_13 z_2470) (cons_334 z_2470 xs_815) Z_2474)))
(assert (forall ((x_77935 Int) (x_77872 Maybe_13) (z_2470 Int) (xs_815 list_338) (y_2801 Int))
	(=> (and (diseqInt y_2801 Z_2474) (index_3 x_77872 xs_815 x_77935) (minus_427 x_77935 y_2801 (S_572 Z_2474))) (index_3 x_77872 (cons_334 z_2470 xs_815) y_2801))))
(assert (forall ((y_2801 Int))
	(index_3 Nothing_13 nil_381 y_2801)))
(declare-fun formula_7 (list_337 list_338) Bool)
(assert (forall ((x_77876 list_337) (y_2802 Int) (z_2471 list_338))
	(=> (and (lt_426 y_2802 (S_572 (S_572 (S_572 Z_2474)))) (formula_7 x_77876 z_2471)) (formula_7 (cons_333 true_406 x_77876) (cons_334 y_2802 z_2471)))))
(assert (forall ((x_77878 list_337) (y_2802 Int) (z_2471 list_338))
	(=> (and (ge_406 y_2802 (S_572 (S_572 (S_572 Z_2474)))) (formula_7 x_77878 z_2471)) (formula_7 (cons_333 false_406 x_77878) (cons_334 y_2802 z_2471)))))
(assert (formula_7 nil_380 nil_381))
(declare-fun colouring_6 (list_337 list_338 list_339) Bool)
(assert (forall ((x_77883 list_337) (c_47 Int) (u_18 Int) (v_18 Int) (z_2472 list_339) (a_86 list_338))
	(=> (and (colouring_6 x_77883 a_86 z_2472) (index_3 (Just_13 c_47) a_86 v_18) (index_3 (Just_13 c_47) a_86 u_18)) (colouring_6 (cons_333 false_406 x_77883) a_86 (cons_335 (pair_145 u_18 v_18) z_2472)))))
(assert (forall ((x_77887 list_337) (c_48 Int) (c_47 Int) (u_18 Int) (v_18 Int) (z_2472 list_339) (a_86 list_338))
	(=> (and (diseqInt c_47 c_48) (colouring_6 x_77887 a_86 z_2472) (index_3 (Just_13 c_48) a_86 v_18) (index_3 (Just_13 c_47) a_86 u_18)) (colouring_6 (cons_333 true_406 x_77887) a_86 (cons_335 (pair_145 u_18 v_18) z_2472)))))
(assert (forall ((x_77891 list_337) (c_47 Int) (u_18 Int) (v_18 Int) (z_2472 list_339) (a_86 list_338))
	(=> (and (colouring_6 x_77891 a_86 z_2472) (index_3 Nothing_13 a_86 v_18) (index_3 (Just_13 c_47) a_86 u_18)) (colouring_6 (cons_333 false_406 x_77891) a_86 (cons_335 (pair_145 u_18 v_18) z_2472)))))
(assert (forall ((x_77894 list_337) (u_18 Int) (v_18 Int) (z_2472 list_339) (a_86 list_338))
	(=> (and (colouring_6 x_77894 a_86 z_2472) (index_3 Nothing_13 a_86 u_18)) (colouring_6 (cons_333 false_406 x_77894) a_86 (cons_335 (pair_145 u_18 v_18) z_2472)))))
(assert (forall ((a_86 list_338))
	(colouring_6 nil_380 a_86 nil_382)))
(declare-fun and_409 (Bool_406 list_337) Bool)
(assert (forall ((x_77896 Bool_406) (x_77897 Bool_406) (y_2804 Bool_406) (xs_816 list_337))
	(=> (and (and_409 x_77897 xs_816) (and_410 x_77896 y_2804 x_77897)) (and_409 x_77896 (cons_333 y_2804 xs_816)))))
(assert (and_409 true_406 nil_380))
(declare-fun colouring_7 (Bool_406 list_339 list_338) Bool)
(assert (forall ((x_77899 Bool_406) (x_77900 list_337) (x_77854 list_339) (y_2805 list_338))
	(=> (and (colouring_6 x_77900 y_2805 x_77854) (and_409 x_77899 x_77900)) (colouring_7 x_77899 x_77854 y_2805))))
(declare-fun x_77855 (list_339 list_339 list_339) Bool)
(assert (forall ((x_77903 list_339) (z_2473 pair_144) (xs_817 list_339) (y_2806 list_339))
	(=> (x_77855 x_77903 xs_817 y_2806) (x_77855 (cons_335 z_2473 x_77903) (cons_335 z_2473 xs_817) y_2806))))
(assert (forall ((x_77904 list_339))
	(x_77855 x_77904 nil_382 x_77904)))
(declare-fun concat_6 (list_339 list_340) Bool)
(assert (forall ((x_77905 list_339) (x_77906 list_339) (y_2807 list_339) (xs_818 list_340))
	(=> (and (concat_6 x_77906 xs_818) (x_77855 x_77905 y_2807 x_77906)) (concat_6 x_77905 (cons_336 y_2807 xs_818)))))
(assert (concat_6 nil_382 nil_383))
(declare-fun petersen_19 (list_339 Int) Bool)
(assert (petersen_19 nil_382 Z_2474))
(assert (forall ((x_77937 Int) (x_77936 Int) (x_77910 list_339) (x_77911 list_338) (x_77912 list_339) (x_77913 list_340) (x_77914 list_339) (x_77915 list_338) (x_77916 list_339) (x_77858 Int))
	(=> (and (diseqInt x_77858 Z_2474) (primEnumFromTo_7 x_77911 Z_2474 x_77936) (petersen_17 x_77912 x_77911) (petersen_18 x_77913 x_77858 (cons_335 (pair_145 x_77937 Z_2474) x_77912)) (concat_6 x_77914 x_77913) (primEnumFromTo_7 x_77915 Z_2474 x_77858) (petersen_16 x_77916 x_77858 x_77915) (x_77855 x_77910 x_77914 x_77916) (minus_427 x_77937 x_77858 (S_572 Z_2474)) (minus_427 x_77936 x_77858 (S_572 Z_2474))) (petersen_19 x_77910 x_77858))))
(assert (forall ((x_77939 Int) (x_77938 Int) (x_77926 list_337) (x_77918 list_338) (x_77919 list_339) (x_77920 list_340) (x_77921 list_339) (x_77922 list_338) (x_77923 list_339) (x_77924 list_339) (a_87 list_338))
	(=> (and true true (formula_7 x_77926 a_87) (and_409 true_406 x_77926) (primEnumFromTo_7 x_77918 Z_2474 x_77938) (petersen_17 x_77919 x_77918) (petersen_18 x_77920 (S_572 (S_572 (S_572 (S_572 (S_572 (S_572 (S_572 Z_2474))))))) (cons_335 (pair_145 x_77939 Z_2474) x_77919)) (concat_6 x_77921 x_77920) (primEnumFromTo_7 x_77922 Z_2474 (S_572 (S_572 (S_572 (S_572 (S_572 (S_572 (S_572 Z_2474)))))))) (petersen_16 x_77923 (S_572 (S_572 (S_572 (S_572 (S_572 (S_572 (S_572 Z_2474))))))) x_77922) (x_77855 x_77924 x_77921 x_77923) (colouring_7 true_406 x_77924 a_87) (minus_427 x_77939 (S_572 (S_572 (S_572 (S_572 (S_572 (S_572 (S_572 Z_2474))))))) (S_572 Z_2474)) (minus_427 x_77938 (S_572 (S_572 (S_572 (S_572 (S_572 (S_572 (S_572 Z_2474))))))) (S_572 Z_2474))) false)))
(check-sat)
